LAMMPS (22 Jul 2025 - Update 1)
  using 1 OpenMP thread(s) per MPI task
package gpu 4
variable        run_name string "Medium NLR LAMMPS benchmark"
print           "--- Starting run: ${run_name} ---"
--- Starting run: Medium NLR LAMMPS benchmark ---

variable 	thermo_print equal 150
variable	total_step equal ${thermo_print}*10
variable	total_step equal 150*10

units		real
boundary	p p p
neighbor        2.0 bin
neigh_modify    delay 10 every 1
atom_style	full
bond_style      harmonic
angle_style     harmonic
dihedral_style  harmonic
pair_style      lj/cut/coul/long 10.0
pair_modify     mix arithmetic
kspace_style    pppm 1e-4
read_data       ../data.begin
Reading data file ...
  orthogonal box = (0.049808341 0.049808341 0.049808341) to (208.65137 208.65137 208.65137)
  4 by 8 by 8 MPI processor grid
  reading atoms ...
  744000 atoms
  reading velocities ...
  744000 velocities
  scanning bonds ...
  2 = max bonds/atom
  orthogonal box = (0.049808341 0.049808341 0.049808341) to (208.65137 208.65137 208.65137)
  4 by 8 by 8 MPI processor grid
  reading bonds ...
  648000 bonds
Finding 1-2 1-3 1-4 neighbors ...
  special bond factors lj:    0        0        0       
  special bond factors coul:  0        0        0       
     2 = max # of 1-2 neighbors
     2 = max # of 1-3 neighbors
     4 = max # of 1-4 neighbors
     2 = max # of special neighbors
  special bonds CPU = 0.009 seconds
  read_data CPU = 4.510 seconds
replicate	2 2 2
Replication is creating a 2x2x2 = 8 times larger system...
  orthogonal box = (0.049808341 0.049808341 0.049808341) to (417.25293 417.25293 417.25293)
  4 by 8 by 8 MPI processor grid
  5952000 atoms
  5184000 bonds
Finding 1-2 1-3 1-4 neighbors ...
  special bond factors lj:    0        0        0       
  special bond factors coul:  0        0        0       
     2 = max # of 1-2 neighbors
     2 = max # of 1-3 neighbors
     4 = max # of 1-4 neighbors
     2 = max # of special neighbors
  special bonds CPU = 0.038 seconds
  replicate CPU = 0.618 seconds
fix             microcanonical all nve
timestep	1
thermo          ${thermo_print}
thermo          150
thermo_modify   flush yes
run             ${total_step}
run             1500

CITE-CITE-CITE-CITE-CITE-CITE-CITE-CITE-CITE-CITE-CITE-CITE-CITE

Your simulation uses code contributions which should be cited:

- GPU package (short-range, long-range and three-body potentials): doi:10.1016/j.cpc.2010.12.021, doi:10.1016/j.cpc.2011.10.012, doi:10.1016/j.cpc.2013.08.002, doi:10.1016/j.commatsci.2014.10.068, doi:10.1016/j.cpc.2016.10.020, doi:10.3233/APC200086

@Article{Brown11,
 author = {W. M. Brown and P. Wang and S. J. Plimpton and A. N. Tharrington},
 title = {Implementing Molecular Dynamics on Hybrid High Performance Computers---Short Range Forces},
 journal = {Comput.\ Phys.\ Commun.},
 year =    2011,
 volume =  182,
 pages =   {898--911},
 doi =     {10.1016/j.cpc.2010.12.021}
}

@Article{Brown12,
 author = {W. M. Brown and A. Kohlmeyer and S. J. Plimpton and A. N. Tharrington},
 title = {Implementing Molecular Dynamics on Hybrid High Performance Computers - Particle-Particle Particle-Mesh},
 journal = {Comput.\ Phys.\ Commun.},
 year =    2012,
 volume =  183,
 doi =     {10.1016/j.cpc.2011.10.012},
 pages =   {449--459}
}

@Article{Brown13,
 author = {W. M. Brown and Y. Masako},
 title = {Implementing Molecular Dynamics on Hybrid High Performance Computers---Three-Body Potentials},
 journal = {Comput.\ Phys.\ Commun.},
 year =    2013,
 volume =  184,
 pages =   {2785--2793},
 doi =     {10.1016/j.cpc.2013.08.002},
}

@Article{Trung15,
 author = {T. D. Nguyen and S. J. Plimpton},
 title = {Accelerating Dissipative Particle Dynamics Simulations for Soft Matter Systems},
 journal = {Comput.\ Mater.\ Sci.},
 year =    2015,
 doi =     {10.1016/j.commatsci.2014.10.068},
 volume =  100,
 pages =   {173--180}
}

@Article{Trung17,
 author = {T. D. Nguyen},
 title = {{GPU}-Accelerated {T}ersoff Potentials for Massively Parallel
    Molecular Dynamics Simulations},
 journal = {Comput.\ Phys.\ Commun.},
 year =    2017,
 doi =     {10.1016/j.cpc.2016.10.020},
 volume =  212,
 pages =   {113--122}
}

@inproceedings{Nikolskiy19,
 author = {V. Nikolskiy and V. Stegailov},
 title = {{GPU} Acceleration of Four-Site Water Models in {LAMMPS}},
 booktitle = {Proceedings of the International Conference on Parallel
    Computing (ParCo 2019), Prague, Czech Republic},
 doi =     {10.3233/APC200086},
 year =    2019
}

CITE-CITE-CITE-CITE-CITE-CITE-CITE-CITE-CITE-CITE-CITE-CITE-CITE

PPPM initialization ...
  using 12-bit tables for long-range coulomb
  G vector (1/distance) = 0.26392422
  grid = 216 216 216
  stencil order = 5
  estimated absolute RMS force accuracy = 0.034660511
  estimated relative force accuracy = 0.0001043791
  using double precision FFTW3
  3d grid and FFT values/proc = 70516 42336
Generated 6 of 6 mixed pair_coeff terms from arithmetic mixing rule
Per MPI rank memory allocation (min/avg/max) = 34.44 | 34.54 | 34.75 Mbytes
   Step          Temp          E_pair         E_mol          TotEng         Press     
         0   299.89378     -97283874       2137399.5     -89825825       40.204143    
       150   299.90529     -97288622       2142010       -89825759       5.9902884    
       300   300.08112     -97291422       2141519.9     -89825930       42.108839    
       450   299.73293     -97287938       2144338.2     -89825805      -38.924003    
       600   299.88416     -97291449       2144968.3     -89826003      -8.8598975    
       750   299.36018     -97286240       2149219       -89825839      -12.64958     
       900   299.82617     -97303964       2158533.6     -89825980      -87.845414    
      1050   299.8936      -97298029       2151585       -89825798       31.163621    
      1200   300.01632     -97299824       2151160.7     -89825841       32.223789    
      1350   299.96065     -97301646       2153859.3     -89825951      -21.135771    
      1500   299.97708     -97299987       2151949.5     -89825911      -1.1408108    
Loop time of 26.9648 on 256 procs for 1500 steps with 5952000 atoms

Performance: 4.806 ns/day, 4.993 hours/ns, 55.628 timesteps/s, 331.099 Matom-step/s
94.3% CPU use with 256 MPI tasks x 1 OpenMP threads

MPI task timing breakdown:
Section |  min time  |  avg time  |  max time  |%varavg| %total
---------------------------------------------------------------
Pair    | 0.67844    | 1.1209     | 1.8603     |  16.9 |  4.16
Bond    | 0.26441    | 0.29078    | 0.36298    |   2.7 |  1.08
Kspace  | 20.735     | 21.232     | 21.672     |   3.4 | 78.74
Neigh   | 0.0034577  | 0.0041605  | 0.0066677  |   0.9 |  0.02
Comm    | 2.9223     | 3.4662     | 3.9645     |   9.3 | 12.85
Output  | 0.0049737  | 0.010343   | 0.01293    |   1.4 |  0.04
Modify  | 0.091816   | 0.10155    | 0.14308    |   3.1 |  0.38
Other   |            | 0.7392     |            |       |  2.74

Nlocal:          23250 ave       23386 max       23053 min
Histogram: 4 9 8 19 38 43 55 45 25 10
Nghost:        37701.9 ave       37947 max       37467 min
Histogram: 1 10 26 50 50 53 33 17 12 4
Neighs:              0 ave           0 max           0 min
Histogram: 256 0 0 0 0 0 0 0 0 0

Total # of neighbors = 0
Ave neighs/atom = 0
Ave special neighs/atom = 1.7419355
Neighbor list builds = 116
Dangerous builds = 0


Total wall time: 0:00:47
